p cnf 30 34                 
3 -17 0
-1 8 0
-2 8 0
1 2 -8 0
-3 1 -13 0
13 -15 0
-4 2 -14 0
14 -15 0
-8 15 -16 0
16 -17 0
17 19 0
-1 19 0
4 -18 0
16 -18 0
18 20 0
-2 20 0
-19 -20 21 0
-21 -22 0
-4 -3 -5 0
5 -7 0
3 4 -6 0
6 -7 0
7 -22 0
8 -22 0
-1 2 -23 0
23 -29 0
-1 -2 24 0
1 2 24 0
-2 2 24 0
-3 4 -25 0
-24 25 -26 0
26 -29 0
22 0
29 0
